10J3M/DAT/10J3MUTA-19.dat
10 3
3.3174 11.0051
46.1026 2125.4497
36.4462 1328.3255
9.7375 94.8189
11.2134 125.7403
43.1348 1860.611
47.9695 2301.0729
20.8729 435.678
29.5996 876.1363
29.8875 893.2627
2513.0251