10J3M/SOL/10J3MUTA-19.sol
solution status: optimal solution found
objective value:                      75.238165875471
x#1#1                                               1 	(obj:0)
x#2#1                               0.207022459434323 	(obj:0)
x#2#2                              0.0366287259006887 	(obj:0)
x#2#3                               0.656627706233206 	(obj:0)
x#3#2                                               1 	(obj:0)
x#4#1                                               1 	(obj:0)
x#5#1                               0.847574530218679 	(obj:0)
x#5#3                               0.152425469781321 	(obj:0)
x#6#1                                               1 	(obj:0)
x#8#3                                               1 	(obj:0)
x#9#2                               0.243779861104943 	(obj:0)
x#9#3                               0.756220138895057 	(obj:0)
x#10#2                                              1 	(obj:0)
z                                     75.238165875471 	(obj:1)
